2 
5 
8 
11 
18 
19 
22 2147483756 2147483760 2147483764 2147483769 
23 
24 
25 2147483756 2147483760 2147483764 2147483769 
26 2147483756 2147483760 2147483764 2147483769 
27 2147483756 2147483760 2147483764 2147483769 
32 2147483756 2147483760 2147483764 2147483769 
49 2147483650 2147483655 2147483656 2147483658 2147483661 2147483662 2147483663 2147483665 2147483668 2147483699 2147483700 2147483702 2147483703 2147483705 2147483706 2147483712 2147483714 2147483717 2147483719 2147483722 2147483725 2147483726 2147483960 
50 
51 
52 2147483650 2147483655 2147483656 2147483658 2147483661 2147483662 2147483663 2147483665 2147483668 2147483699 2147483700 2147483702 2147483703 2147483705 2147483706 2147483712 2147483714 2147483717 2147483719 2147483722 2147483725 2147483726 2147483960 
53 2147483650 2147483655 2147483656 2147483658 2147483661 2147483662 2147483663 2147483665 2147483668 2147483671 2147483677 2147483680 2147483684 2147483693 2147483696 2147483698 2147483699 2147483700 2147483702 2147483703 2147483705 2147483706 2147483709 2147483711 2147483712 2147483714 2147483717 2147483719 2147483722 2147483725 2147483726 2147483746 2147483749 2147483755 2147483759 2147483763 2147483768 2147483774 2147483864 2147483884 2147483908 2147483928 2147483960 
54 2147483650 2147483655 2147483656 2147483658 2147483661 2147483662 2147483663 2147483665 2147483668 2147483699 2147483700 2147483702 2147483703 2147483705 2147483706 2147483712 2147483714 2147483717 2147483719 2147483722 2147483725 2147483726 2147483960 
57 2147483650 2147483655 2147483656 2147483658 2147483661 2147483662 2147483663 2147483665 2147483668 2147483699 2147483700 2147483702 2147483703 2147483705 2147483706 2147483712 2147483714 2147483717 2147483719 2147483722 2147483725 2147483726 2147483755 2147483759 2147483763 2147483768 2147483774 2147483960 
61 
127 2147483650 2147483655 2147483656 2147483658 2147483661 2147483662 2147483663 2147483665 2147483668 2147483699 2147483700 2147483702 2147483703 2147483705 2147483706 2147483712 2147483714 2147483717 2147483719 2147483722 2147483725 2147483726 2147483960 
128 2147483650 2147483655 2147483656 2147483658 2147483661 2147483662 2147483663 2147483665 2147483668 2147483699 2147483700 2147483702 2147483703 2147483705 2147483706 2147483712 2147483714 2147483717 2147483719 2147483722 2147483725 2147483726 2147483960 
129 2147483650 2147483655 2147483656 2147483658 2147483661 2147483662 2147483663 2147483665 2147483668 2147483699 2147483700 2147483702 2147483703 2147483705 2147483706 2147483712 2147483714 2147483717 2147483719 2147483722 2147483725 2147483726 2147483960 
130 2147483650 2147483655 2147483656 2147483658 2147483661 2147483662 2147483663 2147483665 2147483668 2147483699 2147483700 2147483702 2147483703 2147483705 2147483706 2147483712 2147483714 2147483717 2147483719 2147483722 2147483725 2147483726 2147483960 
131 
132 
133 
134 
151 
152 
153 
154 
155 
156 
157 
158 
159 
160 
161 
162 
163 
164 
165 
166 
247 
248 
249 
250 
251 
252 
253 
254 
263 2147483756 2147483760 2147483764 2147483769 
264 2147483756 2147483760 2147483764 2147483769 
265 2147483756 2147483760 2147483764 2147483769 
266 2147483756 2147483760 2147483764 2147483769 
267 
268 
269 
270 
2147483648 2147483649 2147483725 2147483726 2147483649 2147483725 2147483726 
2147483649 2147483648 2147483648 2147483650 2147483725 2147483726 2147483941 2147483650 2147483725 2147483726 2147483941 
2147483650 2147483649 2147483649 2147483725 2147483941 2147483946 57 49 52 54 53 127 128 129 130 2147483725 2147483941 2147483946 
2147483654 
2147483655 2147483661 2147483662 2147483663 2147483665 2147483668 2147483671 2147483677 2147483680 2147483684 2147483693 2147483696 2147483697 2147483698 2147483725 2147483726 2147483769 2147483774 2147483776 2147483777 2147483778 2147483784 2147483788 2147483792 2147483796 2147483800 2147483807 2147483809 2147483813 2147483820 2147483827 2147483831 2147483838 2147483840 2147483844 2147483947 2147483948 2147483950 2147483951 2147483952 2147483955 2147483956 2147483960 49 52 54 57 53 127 128 129 130 2147483661 2147483662 2147483663 2147483665 2147483668 2147483671 2147483677 2147483680 2147483684 2147483693 2147483696 2147483697 2147483698 2147483725 2147483726 2147483769 2147483774 2147483776 2147483777 2147483778 2147483784 2147483788 2147483792 2147483796 2147483800 2147483807 2147483809 2147483813 2147483820 2147483827 2147483831 2147483838 2147483840 2147483844 2147483947 2147483948 2147483950 2147483951 2147483952 2147483955 2147483956 2147483960 
2147483656 2147483658 2147483725 2147483726 2147483768 2147483769 53 49 52 54 57 127 128 129 130 2147483658 2147483725 2147483726 2147483768 2147483769 
2147483658 2147483656 2147483656 2147483725 2147483726 2147483768 2147483769 2147483770 57 53 49 52 54 127 128 129 130 2147483725 2147483726 2147483768 2147483769 2147483770 
2147483661 2147483655 2147483655 2147483662 2147483663 2147483665 2147483668 2147483671 2147483677 2147483680 2147483684 2147483693 2147483696 2147483697 2147483698 2147483725 2147483726 2147483774 2147483776 2147483777 2147483778 2147483784 2147483788 2147483792 2147483796 2147483800 2147483807 2147483809 2147483813 2147483820 2147483827 2147483831 2147483838 2147483840 2147483844 2147483948 2147483950 2147483951 2147483952 2147483955 2147483956 2147483960 53 49 52 54 57 127 128 129 130 2147483662 2147483663 2147483665 2147483668 2147483671 2147483677 2147483680 2147483684 2147483693 2147483696 2147483697 2147483698 2147483725 2147483726 2147483774 2147483776 2147483777 2147483778 2147483784 2147483788 2147483792 2147483796 2147483800 2147483807 2147483809 2147483813 2147483820 2147483827 2147483831 2147483838 2147483840 2147483844 2147483948 2147483950 2147483951 2147483952 2147483955 2147483956 2147483960 
2147483662 2147483655 2147483661 2147483655 2147483661 2147483668 2147483671 2147483677 2147483680 2147483684 2147483693 2147483696 2147483697 2147483698 2147483725 2147483726 2147483778 2147483784 2147483788 2147483792 2147483796 2147483800 2147483807 2147483809 2147483813 2147483820 2147483827 2147483831 2147483838 2147483840 2147483844 2147483948 2147483950 2147483951 2147483952 2147483955 2147483956 2147483960 49 52 54 57 53 127 128 129 130 2147483668 2147483671 2147483677 2147483680 2147483684 2147483693 2147483696 2147483697 2147483698 2147483725 2147483726 2147483778 2147483784 2147483788 2147483792 2147483796 2147483800 2147483807 2147483809 2147483813 2147483820 2147483827 2147483831 2147483838 2147483840 2147483844 2147483948 2147483950 2147483951 2147483952 2147483955 2147483956 2147483960 
2147483663 2147483655 2147483661 2147483655 2147483661 2147483665 2147483725 2147483726 2147483774 2147483960 53 49 52 54 57 127 128 129 130 2147483665 2147483725 2147483726 2147483774 2147483960 
2147483665 2147483655 2147483661 2147483663 2147483655 2147483661 2147483663 2147483725 2147483726 2147483774 2147483776 2147483960 57 53 49 52 54 127 128 129 130 2147483725 2147483726 2147483774 2147483776 2147483960 
2147483668 2147483655 2147483661 2147483662 2147483655 2147483661 2147483662 2147483671 2147483677 2147483680 2147483684 2147483693 2147483696 2147483697 2147483698 2147483725 2147483726 2147483784 2147483788 2147483792 2147483796 2147483800 2147483807 2147483809 2147483813 2147483820 2147483827 2147483831 2147483838 2147483840 2147483844 2147483950 2147483951 2147483952 2147483955 2147483956 53 49 52 54 57 127 128 129 130 2147483671 2147483677 2147483680 2147483684 2147483693 2147483696 2147483697 2147483698 2147483725 2147483726 2147483784 2147483788 2147483792 2147483796 2147483800 2147483807 2147483809 2147483813 2147483820 2147483827 2147483831 2147483838 2147483840 2147483844 2147483950 2147483951 2147483952 2147483955 2147483956 
2147483671 2147483655 2147483661 2147483662 2147483668 2147483655 2147483661 2147483662 2147483668 2147483725 2147483726 2147483950 2147483951 53 2147483725 2147483726 2147483950 2147483951 
2147483677 2147483655 2147483661 2147483662 2147483668 2147483655 2147483661 2147483662 2147483668 2147483725 2147483726 2147483951 53 2147483725 2147483726 2147483951 
2147483680 2147483655 2147483661 2147483662 2147483668 2147483655 2147483661 2147483662 2147483668 2147483725 2147483726 53 2147483725 2147483726 
2147483684 2147483655 2147483661 2147483662 2147483668 2147483655 2147483661 2147483662 2147483668 2147483725 2147483726 2147483955 2147483956 53 2147483725 2147483726 2147483955 2147483956 
2147483693 2147483655 2147483661 2147483662 2147483668 2147483655 2147483661 2147483662 2147483668 2147483725 2147483726 2147483955 53 2147483725 2147483726 2147483955 
2147483696 2147483655 2147483661 2147483662 2147483668 2147483655 2147483661 2147483662 2147483668 2147483725 2147483726 53 2147483725 2147483726 
2147483697 2147483655 2147483661 2147483662 2147483668 2147483655 2147483661 2147483662 2147483668 2147483698 2147483726 2147483698 2147483726 
2147483698 2147483655 2147483661 2147483662 2147483668 2147483697 2147483655 2147483661 2147483662 2147483668 2147483697 53 
2147483699 2147483700 2147483725 2147483726 2147483755 2147483756 53 49 52 54 57 127 128 129 130 2147483700 2147483725 2147483726 2147483755 2147483756 
2147483700 2147483699 2147483699 2147483725 2147483726 2147483755 2147483756 2147483757 57 53 49 52 54 127 128 129 130 2147483725 2147483726 2147483755 2147483756 2147483757 
2147483702 2147483703 2147483725 2147483726 2147483759 2147483760 53 49 52 54 57 127 128 129 130 2147483703 2147483725 2147483726 2147483759 2147483760 
2147483703 2147483702 2147483702 2147483725 2147483726 2147483759 2147483760 2147483761 57 53 49 52 54 127 128 129 130 2147483725 2147483726 2147483759 2147483760 2147483761 
2147483705 2147483706 2147483725 2147483726 2147483763 2147483764 53 49 52 54 57 127 128 129 130 2147483706 2147483725 2147483726 2147483763 2147483764 
2147483706 2147483705 2147483705 2147483725 2147483726 2147483763 2147483764 2147483765 57 53 49 52 54 127 128 129 130 2147483725 2147483726 2147483763 2147483764 2147483765 
2147483708 2147483709 2147483726 2147483709 2147483726 
2147483709 2147483708 2147483708 53 
2147483710 2147483711 2147483726 2147483711 2147483726 
2147483711 2147483710 2147483710 53 
2147483712 2147483714 2147483717 2147483719 2147483722 2147483725 2147483726 2147483846 2147483847 2147483848 2147483849 2147483851 2147483852 2147483853 2147483854 2147483859 2147483860 2147483864 2147483865 2147483868 2147483869 2147483871 2147483872 2147483873 2147483874 2147483879 2147483880 2147483884 2147483885 2147483888 2147483889 2147483890 2147483891 2147483892 2147483893 2147483895 2147483896 2147483897 2147483898 2147483903 2147483904 2147483908 2147483909 2147483912 2147483913 2147483915 2147483916 2147483917 2147483918 2147483923 2147483924 2147483928 2147483929 2147483932 2147483933 2147483939 2147483958 2147483959 49 52 54 57 53 127 128 129 130 2147483714 2147483717 2147483719 2147483722 2147483725 2147483726 2147483846 2147483847 2147483848 2147483849 2147483851 2147483852 2147483853 2147483854 2147483859 2147483860 2147483864 2147483865 2147483868 2147483869 2147483871 2147483872 2147483873 2147483874 2147483879 2147483880 2147483884 2147483885 2147483888 2147483889 2147483890 2147483891 2147483892 2147483893 2147483895 2147483896 2147483897 2147483898 2147483903 2147483904 2147483908 2147483909 2147483912 2147483913 2147483915 2147483916 2147483917 2147483918 2147483923 2147483924 2147483928 2147483929 2147483932 2147483933 2147483939 2147483958 2147483959 
2147483714 2147483712 2147483712 2147483725 2147483726 2147483864 2147483865 2147483868 49 53 57 52 54 127 128 129 130 2147483725 2147483726 2147483864 2147483865 2147483868 
2147483717 2147483712 2147483712 2147483725 2147483726 2147483884 2147483885 2147483888 49 53 57 52 54 127 128 129 130 2147483725 2147483726 2147483884 2147483885 2147483888 
2147483719 2147483712 2147483712 2147483725 2147483726 2147483908 2147483909 2147483912 49 53 57 52 54 127 128 129 130 2147483725 2147483726 2147483908 2147483909 2147483912 
2147483722 2147483712 2147483712 2147483725 2147483726 2147483928 2147483929 2147483932 49 53 57 52 54 127 128 129 130 2147483725 2147483726 2147483928 2147483929 2147483932 
2147483723 
2147483724 
2147483725 2147483648 2147483649 2147483650 2147483655 2147483656 2147483658 2147483661 2147483662 2147483663 2147483665 2147483668 2147483671 2147483677 2147483680 2147483684 2147483693 2147483696 2147483699 2147483700 2147483702 2147483703 2147483705 2147483706 2147483712 2147483714 2147483717 2147483719 2147483722 2147483648 2147483649 2147483650 2147483655 2147483656 2147483658 2147483661 2147483662 2147483663 2147483665 2147483668 2147483671 2147483677 2147483680 2147483684 2147483693 2147483696 2147483699 2147483700 2147483702 2147483703 2147483705 2147483706 2147483712 2147483714 2147483717 2147483719 2147483722 2147483726 2147483737 2147483738 2147483739 2147483740 2147483741 2147483742 2147483743 2147483744 2147483745 2147483746 2147483747 2147483748 2147483749 2147483750 2147483753 2147483755 2147483756 2147483757 2147483758 2147483759 2147483760 2147483761 2147483762 2147483763 2147483764 2147483765 2147483766 2147483768 2147483769 2147483770 2147483771 2147483774 2147483776 2147483777 2147483778 2147483784 2147483788 2147483792 2147483796 2147483800 2147483807 2147483809 2147483813 2147483820 2147483827 2147483831 2147483838 2147483840 2147483844 2147483846 2147483847 2147483848 2147483849 2147483851 2147483852 2147483853 2147483854 2147483859 2147483860 2147483864 2147483865 2147483868 2147483869 2147483871 2147483872 2147483873 2147483874 2147483879 2147483880 2147483884 2147483885 2147483888 2147483889 2147483890 2147483891 2147483892 2147483893 2147483895 2147483896 2147483897 2147483898 2147483903 2147483904 2147483908 2147483909 2147483912 2147483913 2147483915 2147483916 2147483917 2147483918 2147483923 2147483924 2147483928 2147483929 2147483932 2147483933 2147483934 2147483935 2147483938 2147483939 2147483940 2147483941 2147483946 2147483947 2147483948 2147483950 2147483951 2147483952 2147483955 2147483956 2147483958 2147483959 2147483960 53 49 52 54 57 127 128 129 130 2147483726 2147483737 2147483738 2147483739 2147483740 2147483741 2147483742 2147483743 2147483744 2147483745 2147483746 2147483747 2147483748 2147483749 2147483750 2147483753 2147483755 2147483756 2147483757 2147483758 2147483759 2147483760 2147483761 2147483762 2147483763 2147483764 2147483765 2147483766 2147483768 2147483769 2147483770 2147483771 2147483774 2147483776 2147483777 2147483778 2147483784 2147483788 2147483792 2147483796 2147483800 2147483807 2147483809 2147483813 2147483820 2147483827 2147483831 2147483838 2147483840 2147483844 2147483846 2147483847 2147483848 2147483849 2147483851 2147483852 2147483853 2147483854 2147483859 2147483860 2147483864 2147483865 2147483868 2147483869 2147483871 2147483872 2147483873 2147483874 2147483879 2147483880 2147483884 2147483885 2147483888 2147483889 2147483890 2147483891 2147483892 2147483893 2147483895 2147483896 2147483897 2147483898 2147483903 2147483904 2147483908 2147483909 2147483912 2147483913 2147483915 2147483916 2147483917 2147483918 2147483923 2147483924 2147483928 2147483929 2147483932 2147483933 2147483934 2147483935 2147483938 2147483939 2147483940 2147483941 2147483946 2147483947 2147483948 2147483950 2147483951 2147483952 2147483955 2147483956 2147483958 2147483959 2147483960 
2147483726 2147483648 2147483649 2147483655 2147483656 2147483658 2147483661 2147483662 2147483663 2147483665 2147483668 2147483671 2147483677 2147483680 2147483684 2147483693 2147483696 2147483697 2147483699 2147483700 2147483702 2147483703 2147483705 2147483706 2147483708 2147483710 2147483712 2147483714 2147483717 2147483719 2147483722 2147483725 2147483648 2147483649 2147483655 2147483656 2147483658 2147483661 2147483662 2147483663 2147483665 2147483668 2147483671 2147483677 2147483680 2147483684 2147483693 2147483696 2147483697 2147483699 2147483700 2147483702 2147483703 2147483705 2147483706 2147483708 2147483710 2147483712 2147483714 2147483717 2147483719 2147483722 2147483725 2147483737 2147483738 2147483739 2147483740 2147483741 2147483742 2147483743 2147483744 2147483745 2147483746 2147483747 2147483748 2147483749 2147483750 2147483753 2147483755 2147483756 2147483757 2147483758 2147483759 2147483760 2147483761 2147483762 2147483763 2147483764 2147483765 2147483766 2147483768 2147483769 2147483770 2147483771 2147483774 2147483776 2147483777 2147483778 2147483784 2147483788 2147483792 2147483796 2147483800 2147483807 2147483809 2147483813 2147483820 2147483827 2147483831 2147483838 2147483840 2147483844 2147483846 2147483847 2147483848 2147483849 2147483851 2147483852 2147483853 2147483854 2147483859 2147483860 2147483864 2147483865 2147483868 2147483869 2147483871 2147483872 2147483873 2147483874 2147483879 2147483880 2147483884 2147483885 2147483888 2147483889 2147483890 2147483891 2147483892 2147483893 2147483895 2147483896 2147483897 2147483898 2147483903 2147483904 2147483908 2147483909 2147483912 2147483913 2147483915 2147483916 2147483917 2147483918 2147483923 2147483924 2147483928 2147483929 2147483941 2147483947 2147483948 2147483950 2147483951 2147483952 2147483955 2147483956 2147483958 2147483959 2147483960 57 49 52 54 53 127 128 129 130 2147483737 2147483738 2147483739 2147483740 2147483741 2147483742 2147483743 2147483744 2147483745 2147483746 2147483747 2147483748 2147483749 2147483750 2147483753 2147483755 2147483756 2147483757 2147483758 2147483759 2147483760 2147483761 2147483762 2147483763 2147483764 2147483765 2147483766 2147483768 2147483769 2147483770 2147483771 2147483774 2147483776 2147483777 2147483778 2147483784 2147483788 2147483792 2147483796 2147483800 2147483807 2147483809 2147483813 2147483820 2147483827 2147483831 2147483838 2147483840 2147483844 2147483846 2147483847 2147483848 2147483849 2147483851 2147483852 2147483853 2147483854 2147483859 2147483860 2147483864 2147483865 2147483868 2147483869 2147483871 2147483872 2147483873 2147483874 2147483879 2147483880 2147483884 2147483885 2147483888 2147483889 2147483890 2147483891 2147483892 2147483893 2147483895 2147483896 2147483897 2147483898 2147483903 2147483904 2147483908 2147483909 2147483912 2147483913 2147483915 2147483916 2147483917 2147483918 2147483923 2147483924 2147483928 2147483929 2147483941 2147483947 2147483948 2147483950 2147483951 2147483952 2147483955 2147483956 2147483958 2147483959 2147483960 
2147483737 2147483725 2147483726 2147483725 2147483726 
2147483738 2147483725 2147483726 2147483725 2147483726 
2147483739 2147483725 2147483726 2147483725 2147483726 
2147483740 2147483725 2147483726 2147483725 2147483726 
2147483741 2147483725 2147483726 2147483725 2147483726 
2147483742 2147483725 2147483726 2147483725 2147483726 
2147483743 2147483725 2147483726 2147483725 2147483726 
2147483744 2147483725 2147483726 2147483725 2147483726 
2147483745 2147483725 2147483726 2147483725 2147483726 2147483746 2147483746 
2147483746 2147483725 2147483726 2147483745 2147483725 2147483726 2147483745 53 
2147483747 2147483725 2147483726 2147483725 2147483726 
2147483748 2147483725 2147483726 2147483725 2147483726 2147483749 2147483749 
2147483749 2147483725 2147483726 2147483748 2147483725 2147483726 2147483748 53 
2147483750 2147483725 2147483726 2147483725 2147483726 
2147483753 2147483725 2147483726 2147483725 2147483726 
2147483755 2147483699 2147483700 2147483725 2147483726 2147483699 2147483700 2147483725 2147483726 57 53 
2147483756 2147483699 2147483700 2147483725 2147483726 2147483699 2147483700 2147483725 2147483726 2147483757 2147483758 22 25 27 32 26 263 264 265 266 2147483757 2147483758 
2147483757 2147483700 2147483725 2147483726 2147483756 2147483700 2147483725 2147483726 2147483756 
2147483758 2147483725 2147483726 2147483756 2147483725 2147483726 2147483756 
2147483759 2147483702 2147483703 2147483725 2147483726 2147483702 2147483703 2147483725 2147483726 57 53 
2147483760 2147483702 2147483703 2147483725 2147483726 2147483702 2147483703 2147483725 2147483726 2147483761 2147483762 22 25 27 32 26 263 264 265 266 2147483761 2147483762 
2147483761 2147483703 2147483725 2147483726 2147483760 2147483703 2147483725 2147483726 2147483760 
2147483762 2147483725 2147483726 2147483760 2147483725 2147483726 2147483760 
2147483763 2147483705 2147483706 2147483725 2147483726 2147483705 2147483706 2147483725 2147483726 57 53 
2147483764 2147483705 2147483706 2147483725 2147483726 2147483705 2147483706 2147483725 2147483726 2147483765 2147483766 22 25 27 32 26 263 264 265 266 2147483765 2147483766 
2147483765 2147483706 2147483725 2147483726 2147483764 2147483706 2147483725 2147483726 2147483764 
2147483766 2147483725 2147483726 2147483764 2147483725 2147483726 2147483764 
2147483768 2147483656 2147483658 2147483725 2147483726 2147483656 2147483658 2147483725 2147483726 57 53 
2147483769 2147483655 2147483656 2147483658 2147483725 2147483726 2147483655 2147483656 2147483658 2147483725 2147483726 2147483770 2147483771 2147483947 22 25 27 32 26 263 264 265 266 2147483770 2147483771 2147483947 
2147483770 2147483658 2147483725 2147483726 2147483769 2147483658 2147483725 2147483726 2147483769 
2147483771 2147483725 2147483726 2147483769 2147483725 2147483726 2147483769 
2147483774 2147483655 2147483661 2147483663 2147483665 2147483725 2147483726 2147483655 2147483661 2147483663 2147483665 2147483725 2147483726 57 53 
2147483776 2147483655 2147483661 2147483665 2147483725 2147483726 2147483655 2147483661 2147483665 2147483725 2147483726 2147483960 2147483960 
2147483777 2147483655 2147483661 2147483725 2147483726 2147483655 2147483661 2147483725 2147483726 2147483960 2147483960 
2147483778 2147483655 2147483661 2147483662 2147483725 2147483726 2147483655 2147483661 2147483662 2147483725 2147483726 2147483960 2147483960 
2147483784 2147483655 2147483661 2147483662 2147483668 2147483725 2147483726 2147483655 2147483661 2147483662 2147483668 2147483725 2147483726 2147483950 2147483951 2147483950 2147483951 
2147483788 2147483655 2147483661 2147483662 2147483668 2147483725 2147483726 2147483655 2147483661 2147483662 2147483668 2147483725 2147483726 
2147483792 2147483655 2147483661 2147483662 2147483668 2147483725 2147483726 2147483655 2147483661 2147483662 2147483668 2147483725 2147483726 2147483950 2147483951 2147483950 2147483951 
2147483796 2147483655 2147483661 2147483662 2147483668 2147483725 2147483726 2147483655 2147483661 2147483662 2147483668 2147483725 2147483726 2147483800 2147483951 2147483800 2147483951 
2147483800 2147483655 2147483661 2147483662 2147483668 2147483725 2147483726 2147483796 2147483655 2147483661 2147483662 2147483668 2147483725 2147483726 2147483796 2147483951 2147483951 
2147483807 2147483655 2147483661 2147483662 2147483668 2147483725 2147483726 2147483655 2147483661 2147483662 2147483668 2147483725 2147483726 
2147483809 2147483655 2147483661 2147483662 2147483668 2147483725 2147483726 2147483655 2147483661 2147483662 2147483668 2147483725 2147483726 2147483951 2147483951 
2147483813 2147483655 2147483661 2147483662 2147483668 2147483725 2147483726 2147483655 2147483661 2147483662 2147483668 2147483725 2147483726 
2147483820 2147483655 2147483661 2147483662 2147483668 2147483725 2147483726 2147483655 2147483661 2147483662 2147483668 2147483725 2147483726 
2147483827 2147483655 2147483661 2147483662 2147483668 2147483725 2147483726 2147483655 2147483661 2147483662 2147483668 2147483725 2147483726 2147483831 2147483955 2147483831 2147483955 
2147483831 2147483655 2147483661 2147483662 2147483668 2147483725 2147483726 2147483827 2147483655 2147483661 2147483662 2147483668 2147483725 2147483726 2147483827 2147483955 2147483955 
2147483838 2147483655 2147483661 2147483662 2147483668 2147483725 2147483726 2147483655 2147483661 2147483662 2147483668 2147483725 2147483726 
2147483840 2147483655 2147483661 2147483662 2147483668 2147483725 2147483726 2147483655 2147483661 2147483662 2147483668 2147483725 2147483726 2147483955 2147483955 
2147483844 2147483655 2147483661 2147483662 2147483668 2147483725 2147483726 2147483655 2147483661 2147483662 2147483668 2147483725 2147483726 
2147483846 2147483712 2147483725 2147483726 2147483712 2147483725 2147483726 
2147483847 2147483712 2147483725 2147483726 2147483712 2147483725 2147483726 
2147483848 2147483712 2147483725 2147483726 2147483712 2147483725 2147483726 
2147483849 2147483712 2147483725 2147483726 2147483712 2147483725 2147483726 
2147483851 2147483712 2147483725 2147483726 2147483712 2147483725 2147483726 
2147483852 2147483712 2147483725 2147483726 2147483712 2147483725 2147483726 
2147483853 2147483712 2147483725 2147483726 2147483712 2147483725 2147483726 
2147483854 2147483712 2147483725 2147483726 2147483712 2147483725 2147483726 
2147483859 2147483712 2147483725 2147483726 2147483712 2147483725 2147483726 
2147483860 2147483712 2147483725 2147483726 2147483712 2147483725 2147483726 
2147483864 2147483712 2147483714 2147483725 2147483726 2147483712 2147483714 2147483725 2147483726 53 
2147483865 2147483712 2147483714 2147483725 2147483726 2147483712 2147483714 2147483725 2147483726 
2147483868 2147483712 2147483714 2147483725 2147483726 2147483712 2147483714 2147483725 2147483726 
2147483869 2147483712 2147483725 2147483726 2147483712 2147483725 2147483726 
2147483871 2147483712 2147483725 2147483726 2147483712 2147483725 2147483726 
2147483872 2147483712 2147483725 2147483726 2147483712 2147483725 2147483726 
2147483873 2147483712 2147483725 2147483726 2147483712 2147483725 2147483726 
2147483874 2147483712 2147483725 2147483726 2147483712 2147483725 2147483726 
2147483879 2147483712 2147483725 2147483726 2147483712 2147483725 2147483726 
2147483880 2147483712 2147483725 2147483726 2147483712 2147483725 2147483726 
2147483884 2147483712 2147483717 2147483725 2147483726 2147483712 2147483717 2147483725 2147483726 53 
2147483885 2147483712 2147483717 2147483725 2147483726 2147483712 2147483717 2147483725 2147483726 
2147483888 2147483712 2147483717 2147483725 2147483726 2147483712 2147483717 2147483725 2147483726 
2147483889 2147483712 2147483725 2147483726 2147483712 2147483725 2147483726 
2147483890 2147483712 2147483725 2147483726 2147483712 2147483725 2147483726 
2147483891 2147483712 2147483725 2147483726 2147483712 2147483725 2147483726 
2147483892 2147483712 2147483725 2147483726 2147483712 2147483725 2147483726 
2147483893 2147483712 2147483725 2147483726 2147483712 2147483725 2147483726 
2147483895 2147483712 2147483725 2147483726 2147483712 2147483725 2147483726 
2147483896 2147483712 2147483725 2147483726 2147483712 2147483725 2147483726 
2147483897 2147483712 2147483725 2147483726 2147483712 2147483725 2147483726 
2147483898 2147483712 2147483725 2147483726 2147483712 2147483725 2147483726 
2147483903 2147483712 2147483725 2147483726 2147483712 2147483725 2147483726 
2147483904 2147483712 2147483725 2147483726 2147483712 2147483725 2147483726 
2147483908 2147483712 2147483719 2147483725 2147483726 2147483712 2147483719 2147483725 2147483726 53 
2147483909 2147483712 2147483719 2147483725 2147483726 2147483712 2147483719 2147483725 2147483726 
2147483912 2147483712 2147483719 2147483725 2147483726 2147483712 2147483719 2147483725 2147483726 
2147483913 2147483712 2147483725 2147483726 2147483712 2147483725 2147483726 
2147483915 2147483712 2147483725 2147483726 2147483712 2147483725 2147483726 
2147483916 2147483712 2147483725 2147483726 2147483712 2147483725 2147483726 
2147483917 2147483712 2147483725 2147483726 2147483712 2147483725 2147483726 
2147483918 2147483712 2147483725 2147483726 2147483712 2147483725 2147483726 
2147483923 2147483712 2147483725 2147483726 2147483712 2147483725 2147483726 
2147483924 2147483712 2147483725 2147483726 2147483712 2147483725 2147483726 
2147483928 2147483712 2147483722 2147483725 2147483726 2147483712 2147483722 2147483725 2147483726 53 
2147483929 2147483712 2147483722 2147483725 2147483726 2147483712 2147483722 2147483725 2147483726 
2147483932 2147483712 2147483722 2147483725 2147483712 2147483722 2147483725 
2147483933 2147483712 2147483725 2147483712 2147483725 
2147483934 2147483725 2147483725 
2147483935 2147483725 2147483725 
2147483938 2147483725 2147483725 
2147483939 2147483712 2147483725 2147483712 2147483725 
2147483940 2147483725 2147483725 
2147483941 2147483649 2147483650 2147483725 2147483726 2147483649 2147483650 2147483725 2147483726 
2147483946 2147483650 2147483725 2147483650 2147483725 
2147483947 2147483655 2147483725 2147483726 2147483769 2147483655 2147483725 2147483726 2147483769 
2147483948 2147483655 2147483661 2147483662 2147483725 2147483726 2147483655 2147483661 2147483662 2147483725 2147483726 2147483960 2147483960 
2147483950 2147483655 2147483661 2147483662 2147483668 2147483671 2147483725 2147483726 2147483784 2147483792 2147483655 2147483661 2147483662 2147483668 2147483671 2147483725 2147483726 2147483784 2147483792 2147483951 2147483951 
2147483951 2147483655 2147483661 2147483662 2147483668 2147483671 2147483677 2147483725 2147483726 2147483784 2147483792 2147483796 2147483800 2147483809 2147483950 2147483655 2147483661 2147483662 2147483668 2147483671 2147483677 2147483725 2147483726 2147483784 2147483792 2147483796 2147483800 2147483809 2147483950 
2147483952 2147483655 2147483661 2147483662 2147483668 2147483725 2147483726 2147483655 2147483661 2147483662 2147483668 2147483725 2147483726 2147483955 2147483956 2147483955 2147483956 
2147483955 2147483655 2147483661 2147483662 2147483668 2147483684 2147483693 2147483725 2147483726 2147483827 2147483831 2147483840 2147483952 2147483655 2147483661 2147483662 2147483668 2147483684 2147483693 2147483725 2147483726 2147483827 2147483831 2147483840 2147483952 2147483956 2147483956 
2147483956 2147483655 2147483661 2147483662 2147483668 2147483684 2147483725 2147483726 2147483952 2147483955 2147483655 2147483661 2147483662 2147483668 2147483684 2147483725 2147483726 2147483952 2147483955 
2147483958 2147483712 2147483725 2147483726 2147483712 2147483725 2147483726 
2147483959 2147483712 2147483725 2147483726 2147483712 2147483725 2147483726 
2147483960 2147483655 2147483661 2147483662 2147483663 2147483665 2147483725 2147483726 2147483776 2147483777 2147483778 2147483948 2147483655 2147483661 2147483662 2147483663 2147483665 2147483725 2147483726 2147483776 2147483777 2147483778 2147483948 49 52 54 57 53 127 128 129 130 
